p cnf 8 54
-4 -6 0
2 -8 -6 0
-8 7 -3 -5 1 0
7 -3 2 8 -6 4 -1 0
7 1 -3 8 5 -6 0
8 5 0
-3 2 0
8 7 5 0
4 6 -8 -1 2 3 -7 -5 0
7 3 1 0
1 -7 -2 8 4 -6 3 5 0
-6 7 3 -8 1 2 4 -5 0
-1 -3 8 0
2 6 -1 -5 -4 0
-3 -4 8 5 7 2 -6 0
6 -5 0
8 5 4 0
-3 -1 -2 0
-1 5 0
4 3 5 -6 8 1 2 0
-8 -1 0
-5 -4 2 -1 0
3 -5 8 0
-4 -5 -8 0
4 3 2 0
7 6 1 0
-7 -3 6 0
-7 -3 4 2 0
-3 2 1 -6 0
6 8 2 4 5 0
5 -3 0
-5 7 -8 0
-5 3 -6 -8 -4 0
5 -6 4 1 0
-4 7 -3 0
1 3 8 -6 0
-4 3 7 0
3 -7 4 5 6 2 -1 0
-8 -5 -6 1 0
-6 -8 0
-4 7 -5 0
1 8 -3 -7 5 -2 4 6 0
5 -7 1 -3 0
-8 -3 7 0
6 3 5 0
-3 2 -1 4 5 -7 6 -8 0
7 -1 0
3 1 4 0
-4 -6 -3 7 0
7 8 -1 0
1 -4 3 0
-7 6 -2 -5 1 0
-7 4 8 0
-3 1 4 0
